sat
(model
  (define-fun |twice$unknown:6|
    ( (v_0 Int) (v_1 Int) ) Bool
    (or (>= (+ v_0 (* (- 1) v_1)) 1) (>= (* (- 1) v_1) 0))
  )
  (define-fun |f$unknown:2|
    ( (v_0 Int) (v_1 Int) ) Bool
    (= (+ v_0 (* (- 2) v_1)) 0)
  )
  (define-fun |twice$unknown:4|
    ( (v_0 Int) (v_1 Int) ) Bool
    (|f$unknown:2| v_0 v_1)
  )
)
